NAME : sample8
COMMENT : Sample dataset with 8 nodes
COMMENT : Derived from Zainab
TYPE : TSP
DIMENSION : 8
EDGE_WEIGHT_TYPE : EUC_2D
NODE_COORD_SECTION
1 18.3245 20.1356
2 19.7543 27.8945
3 30.5487 19.6754
4 25.9876 12.8974
5 16.2345 13.3421
6 24.1234 14.4567
7 26.8765 28.9876
8 24.2345 24.5678
EOF
